db/data/6410526084882409333515172199729922.z3.out
-------------------
2500.176983915
